-240.0 1.0 9.0 2.0 8.0 6.0 5.0 9.0 2.0 9.0 6.0 0.0 1.0 4.0 4.0 7.0 1.0 1.0 9.0 0.0 5.0 8.0 7.0 3.0 6.0 9.0 6.0 3.0 3.0 9.0 10.0 6.0 4.0 9.0 1.0 2.0 4.0 4.0 2.0 4.0 10.0 2.0 7.0 3.0 7.0 10.0 0.0 10.0 2.0 
1.0 -280.0 1.0 5.0 3.0 5.0 6.0 6.0 10.0 9.0 3.0 9.0 9.0 7.0 4.0 9.0 8.0 6.0 10.0 8.0 2.0 7.0 7.0 8.0 10.0 10.0 9.0 9.0 6.0 3.0 1.0 3.0 7.0 6.0 1.0 2.0 5.0 5.0 4.0 9.0 7.0 3.0 8.0 10.0 5.0 4.0 10.0 0.0 0.0 
9.0 1.0 -189.0 5.0 6.0 6.0 2.0 6.0 3.0 0.0 5.0 4.0 0.0 4.0 3.0 3.0 8.0 1.0 5.0 5.0 0.0 4.0 9.0 0.0 2.0 6.0 2.0 6.0 5.0 2.0 0.0 0.0 5.0 1.0 1.0 4.0 0.0 10.0 8.0 4.0 0.0 1.0 6.0 8.0 2.0 1.0 7.0 10.0 9.0 
2.0 5.0 5.0 -249.0 10.0 2.0 4.0 1.0 10.0 2.0 1.0 4.0 9.0 6.0 4.0 1.0 1.0 6.0 10.0 1.0 6.0 1.0 10.0 10.0 6.0 5.0 8.0 9.0 0.0 10.0 0.0 7.0 1.0 1.0 5.0 2.0 8.0 4.0 1.0 7.0 6.0 1.0 8.0 10.0 7.0 10.0 8.0 10.0 4.0 
8.0 3.0 6.0 10.0 -236.0 7.0 0.0 3.0 4.0 10.0 10.0 2.0 7.0 9.0 2.0 8.0 5.0 1.0 4.0 5.0 5.0 6.0 5.0 10.0 8.0 10.0 6.0 5.0 0.0 10.0 3.0 5.0 0.0 4.0 7.0 6.0 2.0 7.0 0.0 6.0 2.0 1.0 3.0 0.0 6.0 4.0 1.0 9.0 1.0 
6.0 5.0 6.0 2.0 7.0 -212.0 4.0 0.0 1.0 7.0 0.0 5.0 0.0 1.0 3.0 5.0 10.0 7.0 0.0 3.0 2.0 4.0 4.0 5.0 0.0 2.0 9.0 5.0 2.0 7.0 9.0 10.0 8.0 6.0 8.0 8.0 4.0 7.0 0.0 4.0 8.0 5.0 0.0 1.0 2.0 8.0 7.0 2.0 3.0 
5.0 6.0 2.0 4.0 0.0 4.0 -242.0 10.0 6.0 9.0 6.0 1.0 9.0 8.0 2.0 10.0 6.0 8.0 9.0 4.0 5.0 3.0 9.0 8.0 9.0 1.0 4.0 3.0 2.0 5.0 3.0 1.0 4.0 1.0 1.0 4.0 0.0 6.0 3.0 2.0 9.0 8.0 0.0 6.0 7.0 10.0 10.0 4.0 5.0 
9.0 6.0 6.0 1.0 3.0 0.0 10.0 -187.0 9.0 8.0 2.0 3.0 10.0 9.0 1.0 1.0 0.0 3.0 2.0 5.0 9.0 1.0 3.0 10.0 1.0 0.0 5.0 0.0 3.0 5.0 4.0 6.0 1.0 1.0 6.0 2.0 6.0 0.0 6.0 1.0 4.0 1.0 7.0 1.0 1.0 5.0 6.0 1.0 3.0 
2.0 10.0 3.0 10.0 4.0 1.0 6.0 9.0 -253.0 8.0 9.0 2.0 2.0 7.0 0.0 0.0 1.0 7.0 5.0 5.0 4.0 1.0 10.0 3.0 9.0 4.0 8.0 3.0 0.0 8.0 2.0 7.0 10.0 10.0 2.0 0.0 8.0 1.0 1.0 5.0 5.0 9.0 7.0 6.0 7.0 8.0 8.0 6.0 10.0 
9.0 9.0 0.0 2.0 10.0 7.0 9.0 8.0 8.0 -284.0 8.0 8.0 3.0 10.0 8.0 2.0 6.0 0.0 6.0 2.0 4.0 3.0 3.0 8.0 8.0 9.0 2.0 3.0 6.0 0.0 8.0 9.0 7.0 2.0 5.0 10.0 9.0 6.0 2.0 5.0 10.0 1.0 8.0 4.0 8.0 7.0 9.0 5.0 8.0 
6.0 3.0 5.0 1.0 10.0 0.0 6.0 2.0 9.0 8.0 -238.0 6.0 7.0 10.0 2.0 0.0 3.0 2.0 1.0 8.0 7.0 0.0 6.0 7.0 4.0 8.0 5.0 3.0 8.0 6.0 1.0 1.0 1.0 4.0 6.0 7.0 9.0 1.0 6.0 7.0 3.0 9.0 3.0 10.0 6.0 8.0 3.0 5.0 5.0 
0.0 9.0 4.0 4.0 2.0 5.0 1.0 3.0 2.0 8.0 6.0 -241.0 6.0 3.0 9.0 4.0 6.0 4.0 3.0 3.0 2.0 8.0 8.0 8.0 7.0 9.0 9.0 10.0 2.0 6.0 9.0 5.0 8.0 7.0 6.0 0.0 7.0 1.0 0.0 6.0 1.0 4.0 8.0 1.0 4.0 7.0 3.0 6.0 7.0 
1.0 9.0 0.0 9.0 7.0 0.0 9.0 10.0 2.0 3.0 7.0 6.0 -239.0 2.0 4.0 10.0 10.0 5.0 1.0 1.0 9.0 7.0 9.0 7.0 0.0 8.0 6.0 9.0 5.0 2.0 3.0 0.0 1.0 10.0 4.0 9.0 10.0 0.0 3.0 6.0 0.0 2.0 2.0 3.0 8.0 3.0 8.0 4.0 5.0 
4.0 7.0 4.0 6.0 9.0 1.0 8.0 9.0 7.0 10.0 10.0 3.0 2.0 -262.0 2.0 9.0 1.0 7.0 8.0 6.0 0.0 4.0 8.0 1.0 8.0 8.0 4.0 2.0 6.0 7.0 2.0 9.0 5.0 3.0 9.0 1.0 5.0 7.0 3.0 5.0 2.0 7.0 9.0 10.0 6.0 1.0 3.0 8.0 6.0 
4.0 4.0 3.0 4.0 2.0 3.0 2.0 1.0 0.0 8.0 2.0 9.0 4.0 2.0 -237.0 10.0 2.0 8.0 10.0 5.0 10.0 9.0 4.0 5.0 6.0 9.0 8.0 0.0 3.0 5.0 2.0 8.0 9.0 3.0 4.0 7.0 4.0 0.0 5.0 10.0 7.0 0.0 8.0 4.0 0.0 9.0 8.0 7.0 0.0 
7.0 9.0 3.0 1.0 8.0 5.0 10.0 1.0 0.0 2.0 0.0 4.0 10.0 9.0 10.0 -254.0 5.0 7.0 3.0 3.0 10.0 5.0 8.0 6.0 5.0 5.0 3.0 8.0 5.0 4.0 5.0 3.0 10.0 9.0 1.0 4.0 7.0 0.0 5.0 7.0 7.0 8.0 0.0 0.0 9.0 5.0 9.0 0.0 9.0 
1.0 8.0 8.0 1.0 5.0 10.0 6.0 0.0 1.0 6.0 3.0 6.0 10.0 1.0 2.0 5.0 -233.0 8.0 4.0 10.0 9.0 10.0 5.0 6.0 3.0 2.0 1.0 2.0 6.0 7.0 1.0 5.0 8.0 7.0 3.0 3.0 9.0 10.0 7.0 1.0 3.0 3.0 1.0 0.0 6.0 6.0 3.0 5.0 6.0 
1.0 6.0 1.0 6.0 1.0 7.0 8.0 3.0 7.0 0.0 2.0 4.0 5.0 7.0 8.0 7.0 8.0 -235.0 1.0 6.0 4.0 10.0 10.0 6.0 1.0 3.0 9.0 2.0 6.0 1.0 1.0 7.0 2.0 6.0 8.0 6.0 2.0 2.0 10.0 4.0 1.0 10.0 4.0 7.0 4.0 2.0 10.0 2.0 7.0 
9.0 10.0 5.0 10.0 4.0 0.0 9.0 2.0 5.0 6.0 1.0 3.0 1.0 8.0 10.0 3.0 4.0 1.0 -225.0 10.0 5.0 9.0 10.0 4.0 2.0 8.0 7.0 4.0 5.0 1.0 4.0 9.0 2.0 1.0 6.0 3.0 5.0 0.0 1.0 9.0 4.0 3.0 2.0 5.0 4.0 3.0 2.0 5.0 1.0 
0.0 8.0 5.0 1.0 5.0 3.0 4.0 5.0 5.0 2.0 8.0 3.0 1.0 6.0 5.0 3.0 10.0 6.0 10.0 -221.0 7.0 4.0 4.0 9.0 1.0 7.0 2.0 5.0 0.0 10.0 1.0 2.0 10.0 6.0 4.0 4.0 2.0 5.0 0.0 4.0 7.0 2.0 2.0 5.0 9.0 3.0 3.0 3.0 10.0 
5.0 2.0 0.0 6.0 5.0 2.0 5.0 9.0 4.0 4.0 7.0 2.0 9.0 0.0 10.0 10.0 9.0 4.0 5.0 7.0 -257.0 6.0 4.0 10.0 8.0 3.0 6.0 9.0 1.0 5.0 8.0 0.0 4.0 2.0 6.0 4.0 10.0 6.0 0.0 6.0 4.0 6.0 7.0 9.0 3.0 8.0 4.0 4.0 9.0 
8.0 7.0 4.0 1.0 6.0 4.0 3.0 1.0 1.0 3.0 0.0 8.0 7.0 4.0 9.0 5.0 10.0 10.0 9.0 4.0 6.0 -204.0 5.0 4.0 4.0 3.0 7.0 6.0 0.0 6.0 1.0 0.0 0.0 1.0 2.0 1.0 6.0 1.0 0.0 3.0 6.0 0.0 2.0 10.0 7.0 10.0 1.0 2.0 6.0 
7.0 7.0 9.0 10.0 5.0 4.0 9.0 3.0 10.0 3.0 6.0 8.0 9.0 8.0 4.0 8.0 5.0 10.0 10.0 4.0 4.0 5.0 -299.0 7.0 1.0 4.0 10.0 3.0 2.0 10.0 10.0 3.0 4.0 8.0 0.0 1.0 8.0 9.0 8.0 10.0 7.0 9.0 5.0 7.0 3.0 10.0 7.0 4.0 1.0 
3.0 8.0 0.0 10.0 10.0 5.0 8.0 10.0 3.0 8.0 7.0 8.0 7.0 1.0 5.0 6.0 6.0 6.0 4.0 9.0 10.0 4.0 7.0 -276.0 2.0 2.0 6.0 2.0 5.0 7.0 0.0 7.0 5.0 7.0 0.0 8.0 0.0 8.0 3.0 3.0 6.0 9.0 9.0 4.0 8.0 9.0 7.0 4.0 10.0 
6.0 10.0 2.0 6.0 8.0 0.0 9.0 1.0 9.0 8.0 4.0 7.0 0.0 8.0 6.0 5.0 3.0 1.0 2.0 1.0 8.0 4.0 1.0 2.0 -199.0 8.0 1.0 7.0 6.0 6.0 0.0 1.0 1.0 3.0 1.0 0.0 1.0 9.0 9.0 3.0 2.0 0.0 4.0 10.0 1.0 5.0 1.0 0.0 9.0 
9.0 10.0 6.0 5.0 10.0 2.0 1.0 0.0 4.0 9.0 8.0 9.0 8.0 8.0 9.0 5.0 2.0 3.0 8.0 7.0 3.0 3.0 4.0 2.0 8.0 -252.0 8.0 4.0 1.0 2.0 6.0 8.0 1.0 10.0 2.0 8.0 8.0 2.0 2.0 6.0 7.0 8.0 5.0 3.0 10.0 4.0 2.0 2.0 0.0 
6.0 9.0 2.0 8.0 6.0 9.0 4.0 5.0 8.0 2.0 5.0 9.0 6.0 4.0 8.0 3.0 1.0 9.0 7.0 2.0 6.0 7.0 10.0 6.0 1.0 8.0 -240.0 2.0 2.0 0.0 1.0 3.0 7.0 3.0 9.0 1.0 5.0 2.0 3.0 3.0 2.0 4.0 8.0 4.0 4.0 10.0 6.0 2.0 8.0 
3.0 9.0 6.0 9.0 5.0 5.0 3.0 0.0 3.0 3.0 3.0 10.0 9.0 2.0 0.0 8.0 2.0 2.0 4.0 5.0 9.0 6.0 3.0 2.0 7.0 4.0 2.0 -213.0 6.0 9.0 0.0 10.0 6.0 3.0 3.0 0.0 8.0 4.0 2.0 2.0 2.0 5.0 2.0 10.0 2.0 8.0 5.0 0.0 2.0 
3.0 6.0 5.0 0.0 0.0 2.0 2.0 3.0 0.0 6.0 8.0 2.0 5.0 6.0 3.0 5.0 6.0 6.0 5.0 0.0 1.0 0.0 2.0 5.0 6.0 1.0 2.0 6.0 -201.0 2.0 10.0 1.0 8.0 4.0 4.0 9.0 9.0 0.0 5.0 1.0 8.0 9.0 8.0 5.0 7.0 0.0 6.0 3.0 6.0 
9.0 3.0 2.0 10.0 10.0 7.0 5.0 5.0 8.0 0.0 6.0 6.0 2.0 7.0 5.0 4.0 7.0 1.0 1.0 10.0 5.0 6.0 10.0 7.0 6.0 2.0 0.0 9.0 2.0 -232.0 1.0 7.0 0.0 2.0 4.0 3.0 0.0 9.0 8.0 0.0 7.0 9.0 7.0 0.0 1.0 7.0 3.0 3.0 6.0 
10.0 1.0 0.0 0.0 3.0 9.0 3.0 4.0 2.0 8.0 1.0 9.0 3.0 2.0 2.0 5.0 1.0 1.0 4.0 1.0 8.0 1.0 10.0 0.0 0.0 6.0 1.0 0.0 10.0 1.0 -206.0 10.0 7.0 4.0 7.0 9.0 4.0 6.0 0.0 9.0 3.0 8.0 6.0 8.0 5.0 4.0 0.0 8.0 2.0 
6.0 3.0 0.0 7.0 5.0 10.0 1.0 6.0 7.0 9.0 1.0 5.0 0.0 9.0 8.0 3.0 5.0 7.0 9.0 2.0 0.0 0.0 3.0 7.0 1.0 8.0 3.0 10.0 1.0 7.0 10.0 -248.0 9.0 4.0 4.0 3.0 7.0 10.0 10.0 0.0 9.0 3.0 5.0 10.0 9.0 1.0 8.0 0.0 3.0 
4.0 7.0 5.0 1.0 0.0 8.0 4.0 1.0 10.0 7.0 1.0 8.0 1.0 5.0 9.0 10.0 8.0 2.0 2.0 10.0 4.0 0.0 4.0 5.0 1.0 1.0 7.0 6.0 8.0 0.0 7.0 9.0 -244.0 5.0 9.0 7.0 7.0 6.0 4.0 0.0 6.0 8.0 2.0 10.0 1.0 6.0 1.0 8.0 9.0 
9.0 6.0 1.0 1.0 4.0 6.0 1.0 1.0 10.0 2.0 4.0 7.0 10.0 3.0 3.0 9.0 7.0 6.0 1.0 6.0 2.0 1.0 8.0 7.0 3.0 10.0 3.0 3.0 4.0 2.0 4.0 4.0 5.0 -228.0 5.0 7.0 1.0 5.0 8.0 3.0 8.0 5.0 10.0 7.0 5.0 5.0 2.0 0.0 4.0 
1.0 1.0 1.0 5.0 7.0 8.0 1.0 6.0 2.0 5.0 6.0 6.0 4.0 9.0 4.0 1.0 3.0 8.0 6.0 4.0 6.0 2.0 0.0 0.0 1.0 2.0 9.0 3.0 4.0 4.0 7.0 4.0 9.0 5.0 -208.0 7.0 2.0 5.0 3.0 1.0 4.0 8.0 10.0 9.0 1.0 2.0 6.0 2.0 4.0 
2.0 2.0 4.0 2.0 6.0 8.0 4.0 2.0 0.0 10.0 7.0 0.0 9.0 1.0 7.0 4.0 3.0 6.0 3.0 4.0 4.0 1.0 1.0 8.0 0.0 8.0 1.0 0.0 9.0 3.0 9.0 3.0 7.0 7.0 7.0 -223.0 9.0 0.0 4.0 10.0 10.0 7.0 7.0 6.0 2.0 6.0 3.0 4.0 3.0 
4.0 5.0 0.0 8.0 2.0 4.0 0.0 6.0 8.0 9.0 9.0 7.0 10.0 5.0 4.0 7.0 9.0 2.0 5.0 2.0 10.0 6.0 8.0 0.0 1.0 8.0 5.0 8.0 9.0 0.0 4.0 7.0 7.0 1.0 2.0 9.0 -260.0 8.0 2.0 6.0 10.0 9.0 6.0 6.0 1.0 1.0 5.0 8.0 7.0 
4.0 5.0 10.0 4.0 7.0 7.0 6.0 0.0 1.0 6.0 1.0 1.0 0.0 7.0 0.0 0.0 10.0 2.0 0.0 5.0 6.0 1.0 9.0 8.0 9.0 2.0 2.0 4.0 0.0 9.0 6.0 10.0 6.0 5.0 5.0 0.0 8.0 -211.0 6.0 0.0 0.0 9.0 1.0 7.0 4.0 5.0 5.0 6.0 2.0 
2.0 4.0 8.0 1.0 0.0 0.0 3.0 6.0 1.0 2.0 6.0 0.0 3.0 3.0 5.0 5.0 7.0 10.0 1.0 0.0 0.0 0.0 8.0 3.0 9.0 2.0 3.0 2.0 5.0 8.0 0.0 10.0 4.0 8.0 3.0 4.0 2.0 6.0 -176.0 5.0 0.0 1.0 4.0 5.0 2.0 9.0 0.0 6.0 0.0 
4.0 9.0 4.0 7.0 6.0 4.0 2.0 1.0 5.0 5.0 7.0 6.0 6.0 5.0 10.0 7.0 1.0 4.0 9.0 4.0 6.0 3.0 10.0 3.0 3.0 6.0 3.0 2.0 1.0 0.0 9.0 0.0 0.0 3.0 1.0 10.0 6.0 0.0 5.0 -243.0 10.0 8.0 9.0 6.0 9.0 0.0 9.0 5.0 10.0 
10.0 7.0 0.0 6.0 2.0 8.0 9.0 4.0 5.0 10.0 3.0 1.0 0.0 2.0 7.0 7.0 3.0 1.0 4.0 7.0 4.0 6.0 7.0 6.0 2.0 7.0 2.0 2.0 8.0 7.0 3.0 9.0 6.0 8.0 4.0 10.0 10.0 0.0 0.0 10.0 -245.0 3.0 10.0 3.0 1.0 0.0 7.0 6.0 8.0 
2.0 3.0 1.0 1.0 1.0 5.0 8.0 1.0 9.0 1.0 9.0 4.0 2.0 7.0 0.0 8.0 3.0 10.0 3.0 2.0 6.0 0.0 9.0 9.0 0.0 8.0 4.0 5.0 9.0 9.0 8.0 3.0 8.0 5.0 8.0 7.0 9.0 9.0 1.0 8.0 3.0 -249.0 5.0 8.0 8.0 8.0 0.0 10.0 2.0 
7.0 8.0 6.0 8.0 3.0 0.0 0.0 7.0 7.0 8.0 3.0 8.0 2.0 9.0 8.0 0.0 1.0 4.0 2.0 2.0 7.0 2.0 5.0 9.0 4.0 5.0 8.0 2.0 8.0 7.0 6.0 5.0 2.0 10.0 10.0 7.0 6.0 1.0 4.0 9.0 10.0 5.0 -256.0 8.0 2.0 5.0 2.0 9.0 5.0 
3.0 10.0 8.0 10.0 0.0 1.0 6.0 1.0 6.0 4.0 10.0 1.0 3.0 10.0 4.0 0.0 0.0 7.0 5.0 5.0 9.0 10.0 7.0 4.0 10.0 3.0 4.0 10.0 5.0 0.0 8.0 10.0 10.0 7.0 9.0 6.0 6.0 7.0 5.0 6.0 3.0 8.0 8.0 -280.0 9.0 0.0 6.0 7.0 9.0 
7.0 5.0 2.0 7.0 6.0 2.0 7.0 1.0 7.0 8.0 6.0 4.0 8.0 6.0 0.0 9.0 6.0 4.0 4.0 9.0 3.0 7.0 3.0 8.0 1.0 10.0 4.0 2.0 7.0 1.0 5.0 9.0 1.0 5.0 1.0 2.0 1.0 4.0 2.0 9.0 1.0 8.0 2.0 9.0 -234.0 7.0 9.0 2.0 3.0 
10.0 4.0 1.0 10.0 4.0 8.0 10.0 5.0 8.0 7.0 8.0 7.0 3.0 1.0 9.0 5.0 6.0 2.0 3.0 3.0 8.0 10.0 10.0 9.0 5.0 4.0 10.0 8.0 0.0 7.0 4.0 1.0 6.0 5.0 2.0 6.0 1.0 5.0 9.0 0.0 0.0 8.0 5.0 0.0 7.0 -261.0 10.0 5.0 2.0 
0.0 10.0 7.0 8.0 1.0 7.0 10.0 6.0 8.0 9.0 3.0 3.0 8.0 3.0 8.0 9.0 3.0 10.0 2.0 3.0 4.0 1.0 7.0 7.0 1.0 2.0 6.0 5.0 6.0 3.0 0.0 8.0 1.0 2.0 6.0 3.0 5.0 5.0 0.0 9.0 7.0 0.0 2.0 6.0 9.0 10.0 -242.0 5.0 4.0 
10.0 0.0 10.0 10.0 9.0 2.0 4.0 1.0 6.0 5.0 5.0 6.0 4.0 8.0 7.0 0.0 5.0 2.0 5.0 3.0 4.0 2.0 4.0 4.0 0.0 2.0 2.0 0.0 3.0 3.0 8.0 0.0 8.0 0.0 2.0 4.0 8.0 6.0 6.0 5.0 6.0 10.0 9.0 7.0 2.0 5.0 5.0 -223.0 6.0 
2.0 0.0 9.0 4.0 1.0 3.0 5.0 3.0 10.0 8.0 5.0 7.0 5.0 6.0 0.0 9.0 6.0 7.0 1.0 10.0 9.0 6.0 1.0 10.0 9.0 0.0 8.0 2.0 6.0 6.0 2.0 3.0 9.0 4.0 4.0 3.0 7.0 2.0 0.0 10.0 8.0 2.0 5.0 9.0 3.0 2.0 4.0 6.0 -241.0 

